1 - 0
2 - 0
3 - 0
4 - 0
5 - 0
6 - 0
7 - 0
8 - 0
9 - 0
10 - 0
11 - 0
12 - 0
13 - 0
14 - 0
15 - 0
16 - 0
17 - 0
18 - 0
19 - 0
20 - 0
21 - 0
22 - 0
23 - 0
24 - 0
25 - 0
26 - 0
27 - 0
28 - 0
29 - 0
30 - 0
31 - 0
32 - 0
33 - 0
34 - 0
35 - 0
36 - 0
37 - 0
38 - 0
39 - 0
40 - 0
41 - 0
42 - 0
43 - 0
44 - 0
45 - 0
46 - 0
47 - 0
48 - 0
49 - 0
50 - 0
51 - 0
52 - 0
53 - 0
54 - 0
55 - 0
56 - 0
57 - 0
58 - 0
59 - 0
60 - 0
61 - 1
62 - 3
63 - 5
64 - 13
65 - 28
66 - 44
67 - 55
68 - 67
69 - 77
70 - 86
71 - 76
72 - 74
73 - 74
74 - 69
75 - 62
76 - 62
77 - 61
78 - 70
79 - 61
80 - 72
81 - 73
82 - 96
83 - 97
84 - 95
85 - 103
86 - 118
87 - 99
88 - 143
89 - 139
90 - 160
91 - 159
92 - 153
93 - 181
94 - 181
95 - 211
96 - 232
97 - 245
98 - 243
99 - 288
100 - 307
101 - 315
102 - 372
103 - 375
104 - 396
105 - 410
106 - 426
107 - 502
108 - 540
109 - 590
110 - 639
111 - 656
112 - 767
113 - 838
114 - 889
115 - 1004
116 - 1145
117 - 1256
118 - 1360
119 - 1505
120 - 1616
121 - 1739
122 - 2027
123 - 2049
124 - 2217
125 - 2471
126 - 2577
127 - 2956
128 - 2979
129 - 3121
130 - 3353
131 - 3574
132 - 3513
133 - 3765
134 - 3899
135 - 4031
136 - 4047
137 - 3955
138 - 3915
139 - 3987
140 - 3793
141 - 3636
142 - 3367
143 - 3076
144 - 2652
145 - 2378
146 - 1985
147 - 1540
148 - 1031
149 - 527
150 - 0

0.1 - 10309
0.2 - 10401
0.3 - 10489
0.4 - 10542
0.5 - 10432
0.6 - 10384
0.7 - 10352
0.8 - 10375
0.9 - 10372
1 - 10488
